clingo version 5.5.2
Reading from ...nt/beegfs/home/jubruns/encoding/mif.lp ...
Solving...
Answer: 1
move(1,(12,17),(11,17),1) move(1,(11,17),(11,16),2) move(1,(11,16),(11,15),3) move(1,(11,15),(11,14),4) move(1,(11,14),(11,13),5) move(1,(11,13),(10,13),6) move(1,(10,13),(10,12),7) move(1,(10,12),(10,11),8) move(1,(10,11),(9,11),9) move(1,(9,11),(8,11),10) move(1,(8,11),(8,10),11) move(1,(8,10),(8,9),12) move(1,(8,9),(8,8),13) move(1,(8,8),(7,8),14) move(1,(7,8),(7,7),15) move(2,(18,8),(17,8),1) move(2,(17,8),(16,8),2) move(2,(16,8),(15,8),3) move(2,(15,8),(14,8),4) move(2,(14,8),(13,8),5) move(2,(13,8),(13,9),6) move(2,(13,9),(13,10),7) move(2,(13,10),(13,11),8) move(2,(13,11),(12,11),9)
SATISFIABLE

Models       : 1+
Calls        : 1
Time         : 0.220s (Solving: 0.01s 1st Model: 0.01s Unsat: 0.00s)
CPU Time     : 0.189s

Choices      : 159      (Domain: 133)
Conflicts    : 10       (Analyzed: 10)
Restarts     : 0       
Model-Level  : 44.0    
Problems     : 1        (Average Length: 0.00 Splits: 0)
Lemmas       : 10       (Deleted: 0)
  Binary     : 3        (Ratio:  30.00%)
  Ternary    : 0        (Ratio:   0.00%)
  Conflict   : 10       (Average Length:   25.0 Ratio: 100.00%) 
  Loop       : 0        (Average Length:    0.0 Ratio:   0.00%) 
  Other      : 0        (Average Length:    0.0 Ratio:   0.00%) 
Backjumps    : 10       (Average: 11.50 Max:  70 Sum:    115)
  Executed   : 10       (Average: 11.50 Max:  70 Sum:    115 Ratio: 100.00%)
  Bounded    : 0        (Average:  0.00 Max:   0 Sum:      0 Ratio:   0.00%)

Rules        : 91538    (Original: 60261)
  Choice     : 30      
  Heuristic  : 1411     (Original: 1418)
Atoms        : 52447    (Original: 37522 Auxiliary: 14925)
Disjunctions : 0        (Original: 1)
Bodies       : 50668    (Original: 34344)
  Count      : 22       (Original: 89)
Equivalences : 24656    (Atom=Atom: 32 Body=Body: 35 Other: 24589)
Tight        : Yes
Variables    : 55922    (Eliminated:    0 Frozen: 16896)
Constraints  : 125995   (Binary:  80.8% Ternary:  18.4% Other:   0.8%)

